p edge 60 900
e 1 2
e 1 3
e 1 5
e 1 7
e 1 8
e 1 9
e 1 11
e 1 13
e 1 15
e 1 17
e 1 23
e 1 24
e 1 26
e 1 29
e 1 30
e 1 32
e 1 33
e 1 34
e 1 37
e 1 40
e 1 41
e 1 43
e 1 46
e 1 48
e 1 49
e 1 50
e 1 51
e 1 52
e 1 53
e 1 54
e 1 55
e 1 59
e 1 60
e 2 3
e 2 4
e 2 6
e 2 8
e 2 9
e 2 10
e 2 12
e 2 14
e 2 16
e 2 17
e 2 19
e 2 20
e 2 21
e 2 23
e 2 24
e 2 25
e 2 26
e 2 29
e 2 32
e 2 33
e 2 36
e 2 37
e 2 39
e 2 44
e 2 45
e 2 50
e 2 51
e 2 53
e 2 55
e 2 57
e 3 4
e 3 6
e 3 8
e 3 9
e 3 11
e 3 14
e 3 15
e 3 17
e 3 18
e 3 19
e 3 20
e 3 22
e 3 23
e 3 24
e 3 26
e 3 31
e 3 32
e 3 34
e 3 35
e 3 36
e 3 39
e 3 40
e 3 41
e 3 43
e 3 46
e 3 47
e 3 49
e 3 50
e 3 51
e 3 52
e 3 53
e 3 54
e 3 58
e 4 5
e 4 6
e 4 7
e 4 8
e 4 11
e 4 14
e 4 16
e 4 17
e 4 20
e 4 23
e 4 26
e 4 27
e 4 28
e 4 32
e 4 34
e 4 35
e 4 36
e 4 37
e 4 39
e 4 41
e 4 42
e 4 44
e 4 46
e 4 48
e 4 52
e 4 53
e 4 54
e 4 55
e 4 57
e 5 6
e 5 7
e 5 9
e 5 10
e 5 13
e 5 14
e 5 16
e 5 17
e 5 18
e 5 19
e 5 21
e 5 22
e 5 23
e 5 29
e 5 30
e 5 31
e 5 33
e 5 34
e 5 35
e 5 37
e 5 38
e 5 39
e 5 41
e 5 42
e 5 43
e 5 44
e 5 47
e 5 48
e 5 49
e 5 50
e 5 51
e 5 53
e 5 56
e 5 57
e 6 9
e 6 10
e 6 11
e 6 12
e 6 15
e 6 17
e 6 18
e 6 19
e 6 21
e 6 22
e 6 24
e 6 26
e 6 27
e 6 28
e 6 29
e 6 30
e 6 31
e 6 35
e 6 36
e 6 38
e 6 39
e 6 40
e 6 43
e 6 48
e 6 49
e 6 51
e 6 52
e 6 55
e 6 56
e 6 57
e 7 8
e 7 9
e 7 11
e 7 12
e 7 13
e 7 16
e 7 18
e 7 22
e 7 27
e 7 28
e 7 30
e 7 32
e 7 34
e 7 37
e 7 38
e 7 41
e 7 42
e 7 45
e 7 48
e 7 49
e 7 50
e 7 52
e 7 53
e 7 54
e 7 59
e 7 60
e 8 9
e 8 22
e 8 24
e 8 29
e 8 31
e 8 32
e 8 36
e 8 37
e 8 38
e 8 39
e 8 42
e 8 45
e 8 47
e 8 51
e 8 52
e 8 54
e 8 55
e 8 56
e 8 57
e 8 58
e 8 59
e 8 60
e 9 10
e 9 11
e 9 12
e 9 17
e 9 18
e 9 20
e 9 21
e 9 22
e 9 23
e 9 25
e 9 26
e 9 28
e 9 30
e 9 32
e 9 33
e 9 36
e 9 38
e 9 40
e 9 43
e 9 44
e 9 45
e 9 46
e 9 48
e 9 49
e 9 50
e 9 53
e 9 54
e 9 56
e 9 57
e 10 11
e 10 12
e 10 15
e 10 16
e 10 17
e 10 18
e 10 21
e 10 22
e 10 23
e 10 26
e 10 31
e 10 34
e 10 35
e 10 38
e 10 40
e 10 42
e 10 44
e 10 46
e 10 49
e 10 50
e 10 51
e 10 53
e 10 54
e 10 56
e 10 58
e 10 59
e 11 13
e 11 14
e 11 15
e 11 17
e 11 18
e 11 19
e 11 20
e 11 21
e 11 24
e 11 25
e 11 26
e 11 28
e 11 30
e 11 33
e 11 35
e 11 36
e 11 45
e 11 46
e 11 48
e 11 49
e 11 50
e 11 51
e 11 52
e 11 55
e 11 57
e 11 59
e 12 13
e 12 15
e 12 16
e 12 17
e 12 19
e 12 23
e 12 24
e 12 26
e 12 27
e 12 28
e 12 30
e 12 32
e 12 35
e 12 37
e 12 38
e 12 39
e 12 40
e 12 42
e 12 50
e 12 51
e 12 52
e 12 54
e 12 55
e 12 57
e 12 58
e 12 59
e 12 60
e 13 14
e 13 15
e 13 16
e 13 22
e 13 23
e 13 24
e 13 25
e 13 26
e 13 30
e 13 32
e 13 33
e 13 34
e 13 35
e 13 36
e 13 38
e 13 39
e 13 42
e 13 43
e 13 44
e 13 45
e 13 48
e 13 50
e 13 51
e 13 54
e 13 56
e 13 60
e 14 15
e 14 17
e 14 19
e 14 23
e 14 26
e 14 29
e 14 30
e 14 34
e 14 36
e 14 37
e 14 41
e 14 42
e 14 43
e 14 44
e 14 46
e 14 47
e 14 50
e 14 52
e 14 54
e 14 56
e 14 58
e 15 16
e 15 20
e 15 21
e 15 25
e 15 29
e 15 30
e 15 31
e 15 36
e 15 38
e 15 41
e 15 44
e 15 47
e 15 48
e 15 50
e 15 52
e 15 53
e 15 54
e 15 55
e 15 57
e 16 24
e 16 25
e 16 26
e 16 27
e 16 29
e 16 30
e 16 31
e 16 32
e 16 33
e 16 35
e 16 36
e 16 37
e 16 42
e 16 43
e 16 44
e 16 47
e 16 48
e 16 49
e 16 50
e 16 58
e 17 18
e 17 20
e 17 22
e 17 24
e 17 26
e 17 27
e 17 31
e 17 32
e 17 33
e 17 34
e 17 36
e 17 37
e 17 38
e 17 41
e 17 42
e 17 45
e 17 46
e 17 47
e 17 48
e 17 49
e 17 50
e 17 51
e 17 52
e 17 55
e 17 58
e 17 60
e 18 21
e 18 23
e 18 24
e 18 25
e 18 29
e 18 30
e 18 33
e 18 34
e 18 35
e 18 36
e 18 41
e 18 43
e 18 44
e 18 45
e 18 46
e 18 48
e 18 51
e 18 53
e 18 56
e 18 59
e 19 20
e 19 22
e 19 24
e 19 26
e 19 27
e 19 30
e 19 33
e 19 34
e 19 36
e 19 40
e 19 42
e 19 43
e 19 44
e 19 49
e 19 50
e 19 51
e 19 52
e 19 53
e 19 54
e 19 57
e 19 58
e 20 24
e 20 28
e 20 31
e 20 34
e 20 35
e 20 36
e 20 37
e 20 38
e 20 40
e 20 41
e 20 44
e 20 46
e 20 47
e 20 48
e 20 49
e 20 50
e 20 51
e 20 52
e 20 56
e 20 59
e 21 23
e 21 25
e 21 27
e 21 28
e 21 29
e 21 31
e 21 34
e 21 36
e 21 38
e 21 39
e 21 40
e 21 41
e 21 43
e 21 45
e 21 47
e 21 48
e 21 51
e 21 53
e 21 54
e 21 56
e 21 57
e 22 23
e 22 24
e 22 25
e 22 28
e 22 29
e 22 35
e 22 36
e 22 37
e 22 38
e 22 39
e 22 40
e 22 42
e 22 44
e 22 48
e 22 50
e 22 52
e 22 54
e 22 55
e 22 56
e 22 60
e 23 24
e 23 26
e 23 29
e 23 30
e 23 31
e 23 33
e 23 34
e 23 38
e 23 39
e 23 40
e 23 44
e 23 46
e 23 47
e 23 48
e 23 50
e 23 54
e 23 55
e 23 57
e 23 60
e 24 26
e 24 27
e 24 29
e 24 30
e 24 33
e 24 37
e 24 38
e 24 39
e 24 40
e 24 43
e 24 44
e 24 45
e 24 46
e 24 48
e 24 51
e 24 53
e 24 57
e 24 59
e 25 27
e 25 28
e 25 31
e 25 32
e 25 33
e 25 36
e 25 39
e 25 40
e 25 41
e 25 43
e 25 44
e 25 51
e 25 52
e 25 53
e 25 55
e 25 56
e 25 57
e 25 58
e 26 28
e 26 31
e 26 34
e 26 37
e 26 38
e 26 40
e 26 41
e 26 44
e 26 46
e 26 47
e 26 48
e 26 51
e 26 52
e 26 53
e 26 54
e 26 56
e 26 57
e 26 58
e 27 30
e 27 31
e 27 33
e 27 34
e 27 37
e 27 41
e 27 42
e 27 44
e 27 48
e 27 49
e 27 50
e 27 52
e 27 53
e 27 54
e 27 55
e 27 57
e 28 37
e 28 38
e 28 39
e 28 41
e 28 47
e 28 48
e 28 49
e 28 51
e 28 54
e 28 55
e 29 30
e 29 31
e 29 36
e 29 37
e 29 38
e 29 39
e 29 40
e 29 41
e 29 44
e 29 45
e 29 48
e 29 53
e 29 54
e 29 57
e 29 58
e 29 59
e 29 60
e 30 31
e 30 32
e 30 33
e 30 34
e 30 37
e 30 39
e 30 40
e 30 41
e 30 44
e 30 48
e 30 49
e 30 51
e 30 53
e 30 54
e 30 55
e 30 58
e 30 59
e 31 32
e 31 35
e 31 40
e 31 41
e 31 43
e 31 44
e 31 45
e 31 46
e 31 49
e 31 52
e 31 53
e 31 55
e 31 58
e 31 59
e 31 60
e 32 34
e 32 39
e 32 40
e 32 41
e 32 43
e 32 44
e 32 45
e 32 46
e 32 47
e 32 51
e 32 55
e 32 57
e 33 34
e 33 35
e 33 37
e 33 41
e 33 43
e 33 44
e 33 47
e 33 51
e 33 52
e 33 57
e 33 58
e 33 59
e 34 35
e 34 39
e 34 40
e 34 43
e 34 44
e 34 46
e 34 47
e 34 48
e 34 49
e 34 50
e 34 51
e 34 52
e 34 55
e 34 58
e 34 60
e 35 44
e 35 45
e 35 47
e 35 51
e 35 52
e 35 53
e 35 54
e 35 55
e 35 57
e 35 58
e 35 59
e 36 38
e 36 43
e 36 44
e 36 47
e 36 49
e 36 50
e 36 52
e 36 53
e 36 55
e 36 60
e 37 38
e 37 39
e 37 40
e 37 45
e 37 48
e 37 49
e 37 51
e 37 55
e 37 56
e 38 40
e 38 42
e 38 43
e 38 44
e 38 50
e 38 51
e 38 52
e 38 55
e 38 56
e 38 57
e 38 58
e 38 59
e 39 40
e 39 41
e 39 42
e 39 44
e 39 47
e 39 49
e 39 51
e 39 53
e 39 54
e 39 55
e 39 56
e 39 57
e 40 42
e 40 44
e 40 45
e 40 48
e 40 49
e 40 51
e 40 54
e 40 55
e 40 56
e 40 57
e 40 59
e 41 43
e 41 44
e 41 46
e 41 47
e 41 48
e 41 53
e 41 56
e 41 58
e 42 45
e 42 46
e 42 51
e 42 52
e 42 53
e 42 56
e 42 57
e 42 59
e 43 44
e 43 47
e 43 48
e 43 50
e 43 51
e 43 53
e 43 55
e 43 58
e 43 60
e 44 47
e 44 48
e 44 50
e 44 52
e 44 53
e 44 54
e 44 56
e 44 57
e 44 58
e 45 48
e 45 49
e 45 52
e 45 55
e 45 57
e 45 58
e 46 50
e 46 51
e 46 52
e 46 53
e 46 54
e 46 55
e 47 48
e 47 50
e 47 54
e 47 57
e 47 58
e 48 49
e 48 50
e 48 55
e 48 56
e 49 50
e 49 51
e 49 53
e 49 55
e 49 56
e 49 59
e 49 60
e 50 53
e 50 55
e 50 56
e 50 57
e 50 60
e 51 53
e 51 56
e 51 57
e 51 58
e 51 60
e 52 53
e 52 55
e 52 57
e 52 58
e 53 54
e 53 56
e 53 57
e 53 60
e 54 55
e 54 56
e 54 57
e 54 58
e 54 60
e 55 56
e 55 60
e 56 60
e 58 60